peakDumbCharging = 25900; 
Machine = anon_enum(16); 
machineSpeed = [3700,3700,3700,3700,3700,3700,3700,3700,3700,3700,3700,3700,3700,3700,3700,3700]; 
machineLoad = [3700,3700,3700,3700,3700,3700,3700,3700,3700,3700,3700,3700,3700,3700,3700,3700]; 
Car = anon_enum(30); 
demandCar = [15440,10120,3520,22960,10680,8320,7200,6320,19360,9960,8440,560,19120,2840,9720,4000,3640,7160,4520,4320,13480,32920,7480,3080,15680,4640,7400,2560,29360,33360]; 
arrivalCar = [82,79,75,73,73,71,70,70,70,70,68,67,67,65,62,58,56,55,52,50,50,46,45,43,42,42,41,41,34,32]; 
departureCar = [88,83,77,84,80,75,73,75,80,74,71,69,81,67,66,60,58,60,78,54,55,59,49,46,48,46,46,43,58,47]; 
